
List of user-set options:

                                    Name   Value                used
                             alpha_for_y = safer-min-dual-infeas  yes
                  bound_mult_init_method = mu-based              yes
                           compl_inf_tol = 1e-12                 yes
                         constr_viol_tol = 1e-12                 yes
                        file_print_level = 5                     yes
                   hessian_approximation = limited-memory        yes
                           linear_solver = mumps                 yes
                                max_iter = 5000                  yes
                                 mu_init = 0.1                   yes
                             mu_strategy = monotone              yes
                      nlp_scaling_method = gradient-based        yes
                             output_file = /Users/kabirkhwaja/Desktop/College/year5/AE588/assignments/final_project/ae588_project/comparison/dymos_rocket_opt_out/IPOPT.out  yes
                             print_level = 3                     yes
                      print_user_options = yes                   yes
                                      sb = yes                   yes
                                     tol = 1e-10                 yes
This is Ipopt version 3.14.13, running with linear solver MUMPS 5.2.1.

Number of nonzeros in equality constraint Jacobian...:    62227
Number of nonzeros in inequality constraint Jacobian.:        0
Number of nonzeros in Lagrangian Hessian.............:        0

Total number of variables............................:      412
                     variables with only lower bounds:        0
                variables with lower and upper bounds:      412
                     variables with only upper bounds:        0
Total number of equality constraints.................:      380
Total number of inequality constraints...............:        0
        inequality constraints with only lower bounds:        0
   inequality constraints with lower and upper bounds:        0
        inequality constraints with only upper bounds:        0

iter    objective    inf_pr   inf_du lg(mu)  ||d||  lg(rg) alpha_du alpha_pr  ls
   0  3.0000000e+00 8.50e+04 1.69e-04  -1.0 0.00e+00    -  0.00e+00 0.00e+00   0
   1  1.6336433e+00 1.25e+04 1.09e+03  -1.0 1.60e+02    -  8.53e-01 8.53e-01h  1
   2  1.5149497e+00 5.69e+03 2.16e+02  -1.0 2.18e+01    -  2.83e-02 5.45e-01h  1
   3  1.4992814e+00 4.72e+03 2.85e+01  -1.0 9.17e+00    -  7.26e-01 1.71e-01h  1
   4  1.4724647e+00 2.99e+03 2.49e+01  -1.0 7.32e+00    -  7.59e-03 3.67e-01h  1
   5  1.4709672e+00 2.89e+03 1.42e+01  -1.0 4.57e+00    -  8.11e-01 3.28e-02h  1
   6  1.4450934e+00 1.18e+03 1.91e+01  -1.0 4.36e+00    -  9.70e-01 5.93e-01f  1
   7  1.4440132e+00 8.67e+02 2.08e+01  -1.0 3.17e+00    -  1.24e-01 2.63e-01f  1
   8  1.4453640e+00 5.68e+02 2.16e+01  -1.0 2.33e+00    -  1.46e-01 3.44e-01f  1
   9  1.4436836e+00 1.52e+00 4.21e+00  -1.0 1.69e+00    -  7.56e-01 1.00e+00f  1
iter    objective    inf_pr   inf_du lg(mu)  ||d||  lg(rg) alpha_du alpha_pr  ls
  10  1.4418075e+00 4.26e-01 1.80e+00  -1.0 1.10e+00    -  6.11e-01 1.00e+00f  1
  11  1.4418455e+00 6.01e-02 9.92e-01  -1.0 3.51e-01    -  1.00e+00 1.00e+00h  1
  12  1.4422265e+00 8.87e-02 1.01e-01  -1.7 1.44e-01    -  9.66e-01 1.00e+00h  1
  13  1.4420134e+00 6.30e-02 1.60e-02  -2.5 2.06e-01    -  1.00e+00 1.00e+00h  1
  14  1.4397976e+00 1.02e+00 8.95e-03  -2.5 7.80e-01    -  9.85e-01 1.00e+00h  1
  15  1.4423560e+00 6.47e-01 6.53e-03  -2.5 7.19e-01    -  7.94e-01 1.00e+00h  1
  16  1.4421633e+00 1.42e-01 2.91e-03  -2.5 6.01e-01    -  1.00e+00 1.00e+00h  1
  17r 1.4421633e+00 1.42e-01 9.99e+02  -0.8 0.00e+00    -  0.00e+00 4.77e-07R 22
  18r 1.4423564e+00 4.43e-02 8.08e+02  -0.8 1.05e+02    -  1.91e-01 1.34e-03f  1
  19  1.4419412e+00 1.29e-01 1.26e-03  -2.5 1.44e-01    -  1.00e+00 5.00e-01h  2
iter    objective    inf_pr   inf_du lg(mu)  ||d||  lg(rg) alpha_du alpha_pr  ls
  20  1.4419026e+00 1.37e-02 5.61e-04  -2.5 1.47e-01    -  1.00e+00 1.00e+00h  1
  21  1.4383699e+00 8.23e-01 2.23e-03  -3.8 3.53e-01    -  7.65e-01 1.00e+00h  1
  22  1.4203462e+00 1.04e+00 7.28e-03  -3.8 2.49e+00    -  4.57e-01 1.00e+00h  1
  23  1.4300850e+00 4.35e-01 2.81e-03  -3.8 1.95e+00    -  3.20e-01 5.00e-01h  2
  24  1.4318232e+00 7.67e-01 3.73e-03  -3.8 8.65e-01    -  6.20e-01 1.00e+00H  1
  25  1.4367352e+00 4.06e-01 5.45e-03  -3.8 6.61e-01    -  1.00e+00 1.00e+00h  1
  26  1.4342678e+00 2.99e-01 1.50e-03  -3.8 3.06e-01    -  1.00e+00 1.00e+00h  1
  27  1.4372834e+00 2.89e-01 2.15e-03  -3.8 3.02e-01    -  1.00e+00 1.00e+00h  1
  28  1.4346435e+00 2.78e-01 1.55e-03  -3.8 2.64e-01    -  1.00e+00 1.00e+00h  1
  29  1.4370750e+00 2.44e-01 1.29e-03  -3.8 2.43e-01    -  1.00e+00 1.00e+00h  1
iter    objective    inf_pr   inf_du lg(mu)  ||d||  lg(rg) alpha_du alpha_pr  ls
  30  1.4347067e+00 2.45e-01 8.09e-04  -3.8 2.37e-01    -  1.00e+00 1.00e+00h  1
  31  1.4368325e+00 2.06e-01 1.07e-03  -3.8 2.13e-01    -  1.00e+00 1.00e+00h  1
  32  1.4350855e+00 1.81e-01 7.76e-04  -3.8 1.88e-01    -  1.00e+00 1.00e+00h  1
  33  1.4367108e+00 1.64e-01 6.86e-04  -3.8 1.63e-01    -  1.00e+00 1.00e+00h  1
  34  1.4352449e+00 1.51e-01 3.59e-04  -3.8 1.47e-01    -  1.00e+00 1.00e+00h  1
  35  1.4363704e+00 9.28e-02 2.78e-03  -3.8 3.03e-01    -  1.00e+00 1.00e+00h  1
  36  1.4350846e+00 1.42e-01 4.96e-04  -3.8 2.73e-01    -  1.00e+00 1.00e+00h  1
  37  1.4359051e+00 1.51e-02 1.24e-04  -3.8 1.64e-01    -  1.00e+00 5.00e-01h  2
  38  1.4360388e+00 1.37e-02 2.01e-04  -3.8 2.15e-02    -  1.00e+00 1.00e+00h  1
  39  1.4359438e+00 9.78e-03 1.26e-04  -3.8 1.44e-02    -  1.00e+00 1.00e+00h  1
iter    objective    inf_pr   inf_du lg(mu)  ||d||  lg(rg) alpha_du alpha_pr  ls
  40  1.4360308e+00 8.93e-03 8.81e-05  -3.8 8.70e-03    -  1.00e+00 1.00e+00h  1
  41  1.4359565e+00 7.64e-03 1.01e-04  -3.8 9.67e-03    -  1.00e+00 1.00e+00h  1
  42  1.4360228e+00 6.79e-03 2.73e-05  -3.8 7.31e-03    -  1.00e+00 1.00e+00h  1
  43  1.4359683e+00 5.61e-03 2.32e-05  -3.8 5.46e-03    -  1.00e+00 1.00e+00h  1
  44  1.4360185e+00 5.16e-03 1.83e-05  -3.8 5.02e-03    -  1.00e+00 1.00e+00h  1
  45  1.4359715e+00 4.83e-03 4.08e-05  -3.8 4.70e-03    -  1.00e+00 1.00e+00h  1
  46  1.4360108e+00 4.03e-03 1.47e-05  -3.8 3.93e-03    -  1.00e+00 1.00e+00h  1
  47  1.4359802e+00 3.15e-03 1.65e-05  -3.8 3.96e-03    -  1.00e+00 1.00e+00h  1
  48  1.4360065e+00 2.70e-03 8.94e-06  -3.8 2.63e-03    -  1.00e+00 1.00e+00h  1
  49  1.4359817e+00 2.54e-03 1.07e-05  -3.8 2.47e-03    -  1.00e+00 1.00e+00h  1
iter    objective    inf_pr   inf_du lg(mu)  ||d||  lg(rg) alpha_du alpha_pr  ls
  50  1.4360045e+00 2.34e-03 1.31e-05  -3.8 2.28e-03    -  1.00e+00 1.00e+00h  1
  51  1.4359843e+00 2.08e-03 7.91e-06  -3.8 2.02e-03    -  1.00e+00 1.00e+00h  1
  52  1.4360015e+00 1.76e-03 2.25e-05  -3.8 3.27e-03    -  1.00e+00 1.00e+00h  1
  53  1.4359867e+00 1.52e-03 1.54e-06  -3.8 2.53e-03    -  1.00e+00 1.00e+00h  1
  54  1.4360003e+00 1.39e-03 3.30e-06  -3.8 1.35e-03    -  1.00e+00 1.00e+00h  1
  55  1.4323286e+00 2.91e-01 2.16e-03  -5.7 6.23e-01    -  6.91e-01 1.00e+00h  1
  56  1.4342130e+00 5.11e-02 5.13e-04  -5.7 3.77e-01    -  6.49e-01 5.00e-01h  2
  57  1.4356159e+00 1.18e-01 4.63e-04  -5.7 2.09e-01    -  8.56e-01 1.00e+00h  1
  58  1.4346279e+00 8.65e-02 5.35e-04  -5.7 1.23e-01    -  1.00e+00 1.00e+00h  1
  59  1.4354153e+00 6.48e-02 3.28e-04  -5.7 8.71e-02    -  1.00e+00 1.00e+00h  1
iter    objective    inf_pr   inf_du lg(mu)  ||d||  lg(rg) alpha_du alpha_pr  ls
  60  1.4349013e+00 4.45e-02 6.21e-04  -5.7 7.69e-02    -  1.00e+00 1.00e+00h  1
  61  1.4352494e+00 2.85e-02 1.59e-04  -5.7 6.87e-02    -  1.00e+00 1.00e+00h  1
  62  1.4350364e+00 1.82e-02 1.50e-04  -5.7 2.13e-02    -  1.00e+00 1.00e+00h  1
  63  1.4351902e+00 1.29e-02 7.72e-05  -5.7 1.54e-02    -  1.00e+00 1.00e+00h  1
  64  1.4350831e+00 9.05e-03 9.28e-05  -5.7 1.11e-02    -  1.00e+00 1.00e+00h  1
  65  1.4351573e+00 6.24e-03 1.78e-05  -5.7 1.23e-02    -  1.00e+00 1.00e+00h  1
  66  1.4351067e+00 4.29e-03 4.10e-05  -5.7 7.18e-03    -  1.00e+00 1.00e+00h  1
  67  1.4351418e+00 2.96e-03 1.01e-05  -5.7 4.10e-03    -  1.00e+00 1.00e+00h  1
  68  1.4351176e+00 2.05e-03 1.29e-05  -5.7 2.42e-03    -  1.00e+00 1.00e+00h  1
  69  1.4351345e+00 1.43e-03 9.82e-06  -5.7 1.69e-03    -  1.00e+00 1.00e+00h  1
iter    objective    inf_pr   inf_du lg(mu)  ||d||  lg(rg) alpha_du alpha_pr  ls
  70  1.4351227e+00 9.93e-04 8.93e-06  -5.7 1.77e-03    -  1.00e+00 1.00e+00h  1
  71  1.4351309e+00 6.89e-04 2.66e-06  -5.7 1.82e-03    -  1.00e+00 1.00e+00h  1
  72  1.4351253e+00 4.77e-04 4.31e-06  -5.7 7.11e-04    -  1.00e+00 1.00e+00h  1
  73  1.4351292e+00 3.32e-04 1.72e-06  -5.7 3.94e-04    -  1.00e+00 1.00e+00h  1
  74  1.4351265e+00 2.31e-04 1.60e-06  -5.7 2.73e-04    -  1.00e+00 1.00e+00h  1
  75  1.4351284e+00 1.61e-04 2.35e-06  -5.7 3.22e-04    -  1.00e+00 1.00e+00h  1
  76  1.4351270e+00 1.12e-04 4.38e-07  -5.7 2.48e-04    -  1.00e+00 1.00e+00h  1
  77  1.4351280e+00 7.85e-05 4.22e-07  -5.7 9.31e-05    -  1.00e+00 1.00e+00h  1
  78  1.4351273e+00 5.46e-05 2.18e-07  -5.7 6.48e-05    -  1.00e+00 1.00e+00h  1
  79  1.4351278e+00 3.82e-05 3.27e-07  -5.7 8.54e-05    -  1.00e+00 1.00e+00h  1
iter    objective    inf_pr   inf_du lg(mu)  ||d||  lg(rg) alpha_du alpha_pr  ls
  80  1.4351274e+00 2.69e-05 1.43e-07  -5.7 5.60e-05    -  1.00e+00 1.00e+00h  1
  81  1.4351277e+00 1.88e-05 1.34e-07  -5.7 2.23e-05    -  1.00e+00 1.00e+00h  1
  82  1.4351275e+00 1.31e-05 6.75e-08  -5.7 1.56e-05    -  1.00e+00 1.00e+00h  1
  83  1.4351238e+00 3.15e-04 2.64e-05  -8.6 1.31e-02    -  9.91e-01 1.00e+00h  1
  84  1.4351275e+00 9.82e-05 4.46e-05  -8.6 1.13e-02    -  9.86e-01 1.00e+00H  1
  85  1.4351269e+00 6.46e-05 3.12e-05  -8.6 8.07e-03    -  1.00e+00 1.00e+00h  1
  86  1.4351274e+00 1.12e-05 7.68e-06  -8.6 3.61e-03    -  1.00e+00 5.00e-01h  2
  87  1.4351275e+00 1.16e-05 3.23e-06  -8.6 1.97e-03    -  1.00e+00 5.00e-01h  2
  88  1.4351274e+00 8.72e-07 3.32e-06  -8.6 1.03e-03    -  1.00e+00 1.00e+00h  1
  89  1.4351274e+00 4.58e-06 5.12e-06  -8.6 6.34e-04    -  1.00e+00 1.00e+00h  1
iter    objective    inf_pr   inf_du lg(mu)  ||d||  lg(rg) alpha_du alpha_pr  ls
  90  1.4351274e+00 3.73e-06 5.49e-07  -8.6 4.39e-04    -  1.00e+00 1.00e+00h  1
  91  1.4351274e+00 2.80e-06 9.63e-08  -8.6 3.76e-05    -  1.00e+00 1.00e+00h  1
  92  1.4351274e+00 1.87e-06 2.60e-07  -8.6 1.11e-04    -  1.00e+00 1.00e+00h  1
  93  1.4351274e+00 1.15e-06 1.00e-06  -8.6 1.17e-04    -  1.00e+00 1.00e+00h  1
  94  1.4351274e+00 6.36e-07 2.92e-09  -8.6 9.13e-05    -  1.00e+00 1.00e+00h  1
  95  1.4351274e+00 3.18e-07 1.66e-09  -8.6 1.14e-06    -  1.00e+00 1.00e+00h  1
  96  1.4351274e+00 2.12e-07 2.23e-09  -8.6 1.07e-06    -  1.00e+00 1.00e+00h  1
  97  1.4351274e+00 1.37e-07 1.09e-08  -8.6 1.33e-06    -  1.00e+00 1.00e+00h  1
  98  1.4351274e+00 1.06e-07 2.43e-09  -8.6 1.33e-06    -  1.00e+00 1.00e+00h  1
  99  1.4351274e+00 8.02e-08 6.20e-10  -8.6 4.88e-07    -  1.00e+00 1.00e+00h  1
iter    objective    inf_pr   inf_du lg(mu)  ||d||  lg(rg) alpha_du alpha_pr  ls
 100  1.4351274e+00 5.45e-08 1.03e-10  -8.6 1.69e-07    -  1.00e+00 1.00e+00h  1
 101  1.4351274e+00 3.61e-08 1.43e-10  -8.6 1.19e-07    -  1.00e+00 1.00e+00h  1
 102  1.4351274e+00 2.54e-08 2.36e-10  -8.6 1.19e-07    -  1.00e+00 1.00e+00h  1
 103  1.4351274e+00 1.73e-08 1.98e-11  -8.6 7.99e-08    -  1.00e+00 1.00e+00h  1
 104  1.4351274e+00 1.73e-08 1.85e-08 -12.9 2.37e-05    -  1.00e+00 4.88e-04h 12
 105  1.4351274e+00 1.73e-08 1.85e-08 -12.9 3.48e-05    -  1.00e+00 1.53e-05h 17

Number of Iterations....: 105

                                   (scaled)                 (unscaled)
Objective...............:   1.4351274206881761e+00    1.4351274206881761e+00
Dual infeasibility......:   1.8532411583273093e-08    1.8532411583273093e-08
Constraint violation....:   1.7292452847170820e-08    1.7292452847170820e-08
Variable bound violation:   0.0000000000000000e+00    0.0000000000000000e+00
Complementarity.........:   1.2575302847573122e-13    1.2575302847573122e-13
Overall NLP error.......:   1.8532411583273093e-08    1.8532411583273093e-08


Number of objective function evaluations             = 190
Number of objective gradient evaluations             = 107
Number of equality constraint evaluations            = 190
Number of inequality constraint evaluations          = 0
Number of equality constraint Jacobian evaluations   = 108
Number of inequality constraint Jacobian evaluations = 0
Number of Lagrangian Hessian evaluations             = 0
Total seconds in IPOPT                               = 27.095

EXIT: Solved To Acceptable Level.
